Traveling Salesman Problem/TSP_generados/Aleatorio1620390893_7.tsp
NAME: Aleatorio1620390893_7.tsp
COMMENT: Randomly generated scenario
TYPE: TSP
DIMENSION: 7
EDGE_WEIGHT_TYPE: ATT
NODE_COORD_SECTION
1 27.85 38.52
2 3.78 17.97
3 37.24 11.51
4 29.24 19.43
5 30.06 2.14
6 23.03 28.51
7 1.63 40.98
