Traveling Salesman Problem/TSP_generados/Aleatorio1620390893_7.opt.tour
NAME: Aleatorio1620390893_7.opt.tour
COMMENT: Optimal solution for Aleatorio1620390893_7 (125.29721055004283)
TYPE: TOUR
DIMENSION: 7
TOUR_SECTION
1 6 4 3 5 2 7
-1
EOF
